results_rootrelaxation/bin018_050_037.srr.sol
solution status: optimal solution found
objective value:                                    0
_var638_                            0.188753256171583 	(obj:0)
_var876_                            0.033600081456231 	(obj:0)
_var2103_                           0.388872775738134 	(obj:0)
_var2332_                           0.261726414381072 	(obj:0)
_var2823_                           0.111064417561261 	(obj:0)
_var2824_                          0.0674866990116234 	(obj:0)
_var2826_                          0.0995200399895003 	(obj:0)
_var2827_                           0.162691618904803 	(obj:0)
_var2831_                           0.128107003826557 	(obj:0)
_var2836_                           0.231457267129673 	(obj:0)
_var2840_                          0.0466883351845129 	(obj:0)
_var2847_                           0.208221528737569 	(obj:0)
_var2848_                           0.184306560734197 	(obj:0)
_var2852_                           0.370809590431934 	(obj:0)
_var2853_                          0.0279123283416222 	(obj:0)
_var2854_                            0.24771029584969 	(obj:0)
_var2855_                          0.0754746074468523 	(obj:0)
_var2856_                           0.249826992427726 	(obj:0)
_var2857_                          0.0724260421661086 	(obj:0)
_var2858_                           0.494943270987995 	(obj:0)
_var2862_                           0.149969514143663 	(obj:0)
_var2867_                               0.29250493223 	(obj:0)
_var2876_                            0.26601928636417 	(obj:0)
_var2879_                           0.207380602987649 	(obj:0)
_var2887_                           0.225500779855093 	(obj:0)
_var2891_                           0.014163068090566 	(obj:0)
_var2893_                           0.042842904609207 	(obj:0)
_var2894_                           0.105678866207627 	(obj:0)
_var2895_                          0.0680258046985276 	(obj:0)
_var2896_                           0.266235618287775 	(obj:0)
_var2898_                           0.130293139686569 	(obj:0)
_var2900_                            0.11156844385004 	(obj:0)
_var2905_                           0.280494930992044 	(obj:0)
_var2908_                           0.123823757879402 	(obj:0)
_var2912_                            0.18288987401143 	(obj:0)
_var2914_                           0.371408517450205 	(obj:0)
_var2918_                           0.109835427702125 	(obj:0)
_var2919_                           0.228690471329158 	(obj:0)
_var2925_                           0.103636449443959 	(obj:0)
_var2928_                          0.0901080323998152 	(obj:0)
_var2929_                          0.0398439318321834 	(obj:0)
_var2933_                          0.0172465764832484 	(obj:0)
_var2936_                           0.110521033887474 	(obj:0)
_var2937_                           0.177267962014807 	(obj:0)
_var2938_                           0.432580189615582 	(obj:0)
_var2939_                          0.0639101825086338 	(obj:0)
_var2940_                           0.188396673059601 	(obj:0)
_var2941_                           0.218267123138211 	(obj:0)
_var2942_                            0.26733459715594 	(obj:0)
_var2945_                           0.161621103896627 	(obj:0)
_var2947_                          0.0575578378322354 	(obj:0)
_var2948_                           0.248136364894418 	(obj:0)
_var2950_                          0.0872614198270325 	(obj:0)
_var2951_                          0.0450034088502898 	(obj:0)
_var2952_                           0.106023054406008 	(obj:0)
_var2953_                            0.12750497422867 	(obj:0)
_var2955_                         0.00599310210412706 	(obj:0)
_var2956_                           0.134014003573134 	(obj:0)
_var2957_                          0.0810456326661814 	(obj:0)
_var2958_                           0.151394963026845 	(obj:0)
_var2959_                          0.0490678730072036 	(obj:0)
_var2960_                          0.0673279306823213 	(obj:0)
_var2962_                            0.21582894298503 	(obj:0)
_var2963_                          0.0919919344401604 	(obj:0)
_var2965_                          0.0290083139704664 	(obj:0)
_var2966_                           0.137263547962623 	(obj:0)
_var2967_                          0.0771137381983718 	(obj:0)
_var2972_                          0.0180638104954722 	(obj:0)
_var2978_                          0.0646728695544481 	(obj:0)
_var2979_                          0.0977236245279052 	(obj:0)
_var2981_                          0.0641984155117631 	(obj:0)
_var2983_                           0.184108983206134 	(obj:0)
_var2985_                           0.153178151935539 	(obj:0)
_var2986_                           0.173104585099822 	(obj:0)
_var2988_                           0.238170473617595 	(obj:0)
_var2989_                         0.00550471629639657 	(obj:0)
_var2991_                           0.104573697282437 	(obj:0)
_var2992_                           0.168286221572249 	(obj:0)
_var2994_                          0.0628905144531368 	(obj:0)
_var2995_                           0.142704333902344 	(obj:0)
_var2996_                            0.10689382061488 	(obj:0)
_var2997_                           0.163420669043099 	(obj:0)
_var2998_                           0.037061727981564 	(obj:0)
_var2999_                           0.134446159711036 	(obj:0)
_var3000_                          0.0716594627657446 	(obj:0)
_var3003_                          0.0187589593118927 	(obj:0)
_var3004_                           0.027073448106731 	(obj:0)
_var3005_                          0.0282158341127063 	(obj:0)
_var3010_                          0.0283400095333911 	(obj:0)
_var3012_                           0.115881143879511 	(obj:0)
_var3014_                          0.0735256938987693 	(obj:0)
_var3015_                           0.199157062541316 	(obj:0)
_var3016_                          0.0651859868573778 	(obj:0)
_var3018_                           0.173487962244868 	(obj:0)
_var3019_                           0.114972781851769 	(obj:0)
_var3020_                           0.045226202764339 	(obj:0)
_var3021_                          0.0300581457329005 	(obj:0)
_var3022_                           0.122416982550315 	(obj:0)
_var3025_                           0.161495643325577 	(obj:0)
_var3026_                         0.00921175388664498 	(obj:0)
_var3027_                         0.00917047020821939 	(obj:0)
_var3028_                            0.10675020098179 	(obj:0)
_var3030_                          0.0546831643332749 	(obj:0)
_var3031_                          0.0665606169691501 	(obj:0)
_var3032_                          0.0184392207140347 	(obj:0)
_var3033_                         0.00970299266377056 	(obj:0)
_var3036_                           0.314210459000511 	(obj:0)
_var3037_                            0.12006431493782 	(obj:0)
_var3039_                          0.0631191572726431 	(obj:0)
_var3041_                           0.104727577592748 	(obj:0)
_var3042_                           0.339347304860563 	(obj:0)
_var3044_                          0.0459537745510144 	(obj:0)
_var3045_                          0.0427580616872144 	(obj:0)
_var3046_                          0.0646990625914125 	(obj:0)
_var3048_                            0.09126917397678 	(obj:0)
_var3050_                          0.0223949819601609 	(obj:0)
_var3051_                           0.225130166353869 	(obj:0)
_var3052_                          0.0128153179211839 	(obj:0)
_var3053_                           0.055885682560145 	(obj:0)
_var3055_                          0.0174838087899926 	(obj:0)
_var3057_                         0.00841318152831189 	(obj:0)
_var3060_                           0.190443149710537 	(obj:0)
_var3061_                          0.0642263323396861 	(obj:0)
_var3062_                           0.139005918554156 	(obj:0)
_var3067_                          0.0987250095374357 	(obj:0)
_var3069_                          0.0359887651645539 	(obj:0)
_var3070_                           0.154830394393553 	(obj:0)
_var3072_                          0.0405011732687687 	(obj:0)
_var3075_                          0.0944096874242284 	(obj:0)
_var3076_                          0.0232364066022996 	(obj:0)
_var3079_                         0.00260987227634172 	(obj:0)
_var3080_                          0.0280083955031232 	(obj:0)
_var3081_                          0.0482014142052133 	(obj:0)
_var3082_                          0.0597806822250991 	(obj:0)
_var3084_                         0.00871271759026883 	(obj:0)
_var3086_                          0.0613193179721737 	(obj:0)
_var3088_                          0.0120768909192417 	(obj:0)
_var3089_                          0.0292941689181719 	(obj:0)
_var3091_                           0.044574624633719 	(obj:0)
_var3092_                          0.0747333220595222 	(obj:0)
_var3095_                          0.0641048728787354 	(obj:0)
_var3096_                          0.0162275313654252 	(obj:0)
_var3098_                          0.0197409908401247 	(obj:0)
_var3101_                          0.0122789553648651 	(obj:0)
_var3102_                          0.0433231712874907 	(obj:0)
_var3104_                          0.0335216612397903 	(obj:0)
_var3105_                           0.122405632628751 	(obj:0)
_var3110_                          0.0148954755960978 	(obj:0)
_var3111_                          0.0125697962377877 	(obj:0)
_var3114_                          0.0134455892147114 	(obj:0)
_var3121_                          0.0168290163183634 	(obj:0)
_var3127_                          0.0115345591603914 	(obj:0)
