results_rootrelaxation/bin018_050_037.srr.log
SCIP version 8.0.3.5 [precision: 8 byte] [memory: block] [mode: optimized] [LP solver: Soplex 6.0.1.3] [GitHash: 438792519e]
Copyright (c) 2002-2023 Zuse Institute Berlin (ZIB)

External libraries: 
  Readline 8.1         GNU library for command line editing (gnu.org/s/readline)
  Soplex 6.0.1.3       Linear Programming Solver developed at Zuse Institute Berlin (soplex.zib.de) [GitHash: 713be0fe]
  CppAD 20180000.0     Algorithmic Differentiation of C++ algorithms developed by B. Bell (github.com/coin-or/CppAD)
  ZLIB 1.2.11          General purpose compression library by J. Gailly and M. Adler (zlib.net)
  bliss 0.77           Computing Graph Automorphism Groups by T. Junttila and P. Kaski (www.tcs.hut.fi/Software/bliss/)

user parameter file <scip.set> not found - using default parameters

srr/relaxation = TRUE

read problem <instances/bin018_050_037.srr>
============

Original problem: 
original problem has 0 variables (0 bin, 0 int, 0 impl, 0 cont) and 170 constraints

presolving:
presolving (1 rounds: 1 fast, 1 medium, 1 exhaustive):
 0 deleted vars, 0 deleted constraints, 0 added constraints, 0 tightened bounds, 0 added holes, 0 changed sides, 0 changed coefficients
 0 implications, 0 cliques
presolved problem has 0 variables (0 bin, 0 int, 0 impl, 0 cont) and 170 constraints
    170 constraints of type <linear>
Presolving Time: 0.00

 time | node  | left  |LP iter|LP it/n|mem/heur|mdpt |vars |cons |rows |cuts |sepa|confs|strbr|  dualbound   | primalbound  |  gap   | compl. 
  0.0s|     1 |     0 |     1 |     - |   922k |   0 |   1 | 170 | 170 |   0 |  0 |   0 |   0 |      --      |      --      |    Inf | unknown
  0.2s|     1 |     0 |   916 |     - |  7130k |   0 |1615 | 170 | 170 |   0 |  0 |   0 |   0 |      --      |      --      |    Inf | unknown
r 1.0s|     1 |     0 |  7121 |     - |simplero|   0 |2822 | 170 | 170 |   0 |  0 |   0 |   0 |      --      | 3.447457e+01 |    Inf | unknown
r 1.0s|     1 |     0 |  7234 |     - |simplero|   0 |2839 | 170 | 170 |   0 |  0 |   0 |   0 |      --      | 3.207436e+01 |    Inf | unknown
r 1.0s|     1 |     0 |  7408 |     - |simplero|   0 |2856 | 170 | 170 |   0 |  0 |   0 |   0 |      --      | 2.896997e+01 |    Inf | unknown
r 1.1s|     1 |     0 |  7567 |     - |simplero|   0 |2873 | 170 | 170 |   0 |  0 |   0 |   0 |      --      | 2.587391e+01 |    Inf | unknown
r 1.1s|     1 |     0 |  7646 |     - |simplero|   0 |2873 | 170 | 170 |   0 |  0 |   0 |   0 |      --      | 2.523194e+01 |    Inf | unknown
r 1.1s|     1 |     0 |  7657 |     - |simplero|   0 |2873 | 170 | 170 |   0 |  0 |   0 |   0 |      --      | 2.523078e+01 |    Inf | unknown
r 1.1s|     1 |     0 |  7837 |     - |simplero|   0 |2890 | 170 | 170 |   0 |  0 |   0 |   0 |      --      | 2.180608e+01 |    Inf | unknown
r 1.1s|     1 |     0 |  7878 |     - |simplero|   0 |2890 | 170 | 170 |   0 |  0 |   0 |   0 |      --      | 2.172333e+01 |    Inf | unknown
r 1.1s|     1 |     0 |  7882 |     - |simplero|   0 |2890 | 170 | 170 |   0 |  0 |   0 |   0 |      --      | 2.172224e+01 |    Inf | unknown
r 1.1s|     1 |     0 |  7957 |     - |simplero|   0 |2907 | 170 | 170 |   0 |  0 |   0 |   0 |      --      | 2.032145e+01 |    Inf | unknown
r 1.1s|     1 |     0 |  8095 |     - |simplero|   0 |2907 | 170 | 170 |   0 |  0 |   0 |   0 |      --      | 1.871649e+01 |    Inf | unknown
r 1.1s|     1 |     0 |  8145 |     - |simplero|   0 |2907 | 170 | 170 |   0 |  0 |   0 |   0 |      --      | 1.838895e+01 |    Inf | unknown
r 1.2s|     1 |     0 |  8152 |     - |simplero|   0 |2907 | 170 | 170 |   0 |  0 |   0 |   0 |      --      | 1.838620e+01 |    Inf | unknown
 time | node  | left  |LP iter|LP it/n|mem/heur|mdpt |vars |cons |rows |cuts |sepa|confs|strbr|  dualbound   | primalbound  |  gap   | compl. 
r 1.2s|     1 |     0 |  8317 |     - |simplero|   0 |2924 | 170 | 170 |   0 |  0 |   0 |   0 |      --      | 1.585459e+01 |    Inf | unknown
r 1.2s|     1 |     0 |  8345 |     - |simplero|   0 |2924 | 170 | 170 |   0 |  0 |   0 |   0 |      --      | 1.582293e+01 |    Inf | unknown
r 1.2s|     1 |     0 |  8353 |     - |simplero|   0 |2924 | 170 | 170 |   0 |  0 |   0 |   0 |      --      | 1.581487e+01 |    Inf | unknown
r 1.2s|     1 |     0 |  8472 |     - |simplero|   0 |2941 | 170 | 170 |   0 |  0 |   0 |   0 |      --      | 1.390952e+01 |    Inf | unknown
r 1.2s|     1 |     0 |  8533 |     - |simplero|   0 |2941 | 170 | 170 |   0 |  0 |   0 |   0 |      --      | 1.349322e+01 |    Inf | unknown
r 1.2s|     1 |     0 |  8568 |     - |simplero|   0 |2941 | 170 | 170 |   0 |  0 |   0 |   0 |      --      | 1.345036e+01 |    Inf | unknown
r 1.2s|     1 |     0 |  8572 |     - |simplero|   0 |2941 | 170 | 170 |   0 |  0 |   0 |   0 |      --      | 1.345001e+01 |    Inf | unknown
r 1.2s|     1 |     0 |  8718 |     - |simplero|   0 |2958 | 170 | 170 |   0 |  0 |   0 |   0 |      --      | 1.113155e+01 |    Inf | unknown
r 1.2s|     1 |     0 |  8761 |     - |simplero|   0 |2958 | 170 | 170 |   0 |  0 |   0 |   0 |      --      | 1.104392e+01 |    Inf | unknown
r 1.2s|     1 |     0 |  8774 |     - |simplero|   0 |2958 | 170 | 170 |   0 |  0 |   0 |   0 |      --      | 1.102428e+01 |    Inf | unknown
r 1.3s|     1 |     0 |  8908 |     - |simplero|   0 |2975 | 170 | 170 |   0 |  0 |   0 |   0 |      --      | 9.194935e+00 |    Inf | unknown
r 1.3s|     1 |     0 |  8947 |     - |simplero|   0 |2975 | 170 | 170 |   0 |  0 |   0 |   0 |      --      | 9.112524e+00 |    Inf | unknown
r 1.3s|     1 |     0 |  9118 |     - |simplero|   0 |2992 | 170 | 170 |   0 |  0 |   0 |   0 |      --      | 7.212238e+00 |    Inf | unknown
r 1.3s|     1 |     0 |  9188 |     - |simplero|   0 |2992 | 170 | 170 |   0 |  0 |   0 |   0 |      --      | 6.914818e+00 |    Inf | unknown
  1.3s|     1 |     0 |  9194 |     - |    14M |   0 |2992 | 170 | 170 |   0 |  0 |   0 |   0 |      --      | 6.914818e+00 |    Inf | unknown
 time | node  | left  |LP iter|LP it/n|mem/heur|mdpt |vars |cons |rows |cuts |sepa|confs|strbr|  dualbound   | primalbound  |  gap   | compl. 
r 1.3s|     1 |     0 |  9194 |     - |simplero|   0 |2992 | 170 | 170 |   0 |  0 |   0 |   0 |      --      | 6.911422e+00 |    Inf | unknown
r 1.3s|     1 |     0 |  9198 |     - |simplero|   0 |2992 | 170 | 170 |   0 |  0 |   0 |   0 |      --      | 6.910987e+00 |    Inf | unknown
r 1.3s|     1 |     0 |  9314 |     - |simplero|   0 |3009 | 170 | 170 |   0 |  0 |   0 |   0 |      --      | 6.196983e+00 |    Inf | unknown
r 1.3s|     1 |     0 |  9359 |     - |simplero|   0 |3009 | 170 | 170 |   0 |  0 |   0 |   0 |      --      | 6.094340e+00 |    Inf | unknown
r 1.3s|     1 |     0 |  9365 |     - |simplero|   0 |3009 | 170 | 170 |   0 |  0 |   0 |   0 |      --      | 6.090092e+00 |    Inf | unknown
r 1.4s|     1 |     0 |  9500 |     - |simplero|   0 |3026 | 170 | 170 |   0 |  0 |   0 |   0 |      --      | 4.960226e+00 |    Inf | unknown
r 1.4s|     1 |     0 |  9539 |     - |simplero|   0 |3026 | 170 | 170 |   0 |  0 |   0 |   0 |      --      | 4.802425e+00 |    Inf | unknown
r 1.4s|     1 |     0 |  9573 |     - |simplero|   0 |3026 | 170 | 170 |   0 |  0 |   0 |   0 |      --      | 4.708839e+00 |    Inf | unknown
r 1.4s|     1 |     0 |  9580 |     - |simplero|   0 |3026 | 170 | 170 |   0 |  0 |   0 |   0 |      --      | 4.705471e+00 |    Inf | unknown
r 1.4s|     1 |     0 |  9721 |     - |simplero|   0 |3043 | 170 | 170 |   0 |  0 |   0 |   0 |      --      | 3.007507e+00 |    Inf | unknown
r 1.4s|     1 |     0 |  9752 |     - |simplero|   0 |3043 | 170 | 170 |   0 |  0 |   0 |   0 |      --      | 2.927223e+00 |    Inf | unknown
r 1.4s|     1 |     0 |  9763 |     - |simplero|   0 |3043 | 170 | 170 |   0 |  0 |   0 |   0 |      --      | 2.903338e+00 |    Inf | unknown
r 1.4s|     1 |     0 |  9768 |     - |simplero|   0 |3043 | 170 | 170 |   0 |  0 |   0 |   0 |      --      | 2.902785e+00 |    Inf | unknown
r 1.4s|     1 |     0 |  9881 |     - |simplero|   0 |3060 | 170 | 170 |   0 |  0 |   0 |   0 |      --      | 2.061808e+00 |    Inf | unknown
r 1.4s|     1 |     0 |  9944 |     - |simplero|   0 |3060 | 170 | 170 |   0 |  0 |   0 |   0 |      --      | 1.803424e+00 |    Inf | unknown
 time | node  | left  |LP iter|LP it/n|mem/heur|mdpt |vars |cons |rows |cuts |sepa|confs|strbr|  dualbound   | primalbound  |  gap   | compl. 
r 1.4s|     1 |     0 |  9980 |     - |simplero|   0 |3060 | 170 | 170 |   0 |  0 |   0 |   0 |      --      | 1.708029e+00 |    Inf | unknown
r 1.5s|     1 |     0 | 10081 |     - |simplero|   0 |3077 | 170 | 170 |   0 |  0 |   0 |   0 |      --      | 7.596211e-01 |    Inf | unknown
r 1.5s|     1 |     0 | 10088 |     - |simplero|   0 |3077 | 170 | 170 |   0 |  0 |   0 |   0 |      --      | 7.547513e-01 |    Inf | unknown
r 1.5s|     1 |     0 | 10158 |     - |simplero|   0 |3094 | 170 | 170 |   0 |  0 |   0 |   0 |      --      | 4.570390e-01 |    Inf | unknown
r 1.5s|     1 |     0 | 10206 |     - |simplero|   0 |3094 | 170 | 170 |   0 |  0 |   0 |   0 |      --      | 3.378167e-01 |    Inf | unknown
r 1.5s|     1 |     0 | 10218 |     - |simplero|   0 |3094 | 170 | 170 |   0 |  0 |   0 |   0 |      --      | 3.252159e-01 |    Inf | unknown
r 1.5s|     1 |     0 | 10223 |     - |simplero|   0 |3094 | 170 | 170 |   0 |  0 |   0 |   0 |      --      | 3.249066e-01 |    Inf | unknown
r 1.5s|     1 |     0 | 10281 |     - |simplero|   0 |3111 | 170 | 170 |   0 |  0 |   0 |   0 |      --      | 7.402687e-02 |    Inf | unknown
r 1.5s|     1 |     0 | 10296 |     - |simplero|   0 |3111 | 170 | 170 |   0 |  0 |   0 |   0 |      --      | 6.885206e-02 |    Inf | unknown
r 1.5s|     1 |     0 | 10307 |     - |simplero|   0 |3128 | 170 | 170 |   0 |  0 |   0 |   0 |      --      | 0.000000e+00 |    Inf | unknown
  1.5s|     1 |     0 | 10307 |     - |    17M |   0 |3128 | 170 | 170 |   0 |  0 |   0 |   0 | 0.000000e+00 | 0.000000e+00 |   0.00%| unknown
  1.5s|     1 |     0 | 10307 |     - |    17M |   0 |3128 | 170 | 170 |   0 |  0 |   0 |   0 | 0.000000e+00 | 0.000000e+00 |   0.00%| unknown

SCIP Status        : problem is solved [optimal solution found]
Solving Time (sec) : 1.52
Solving Nodes      : 1
Primal Bound       : +0.00000000000000e+00 (52 solutions)
Dual Bound         : +0.00000000000000e+00
Gap                : 0.00 %

written transformed problem to file <results_rootrelaxation/bin018_050_037.srr.lp>
written transformed problem to file <results_rootrelaxation/bin018_050_037.srr.cip>

written solution information to file <results_rootrelaxation/bin018_050_037.srr.sol>



